p cnf 275 954
1 0
-2 0
-3 0
-4 0
-5 0
-6 0
-7 0
-8 0
-9 0
-10 0
-11 0
12 13 14 15 0
-12 -13 0
-12 -14 0
-12 -15 0
-13 -14 0
-13 -15 0
-14 -15 0
-1 16 -17 0
1 -16 -17 0
-1 -16 17 0
1 16 17 0
-12 -17 0
1 -16 -18 0
-1 16 -18 0
18 -1 -16 0
18 1 16 0
-13 18 0
-14 18 0
-15 18 0
-2 19 -20 0
2 -19 -20 0
-2 -19 20 0
2 19 20 0
-12 -20 0
2 -21 -22 0
-2 21 -22 0
22 -2 -21 0
22 2 21 0
-13 22 0
-21 23 0
-19 23 0
-16 23 0
21 19 16 -23 0
2 -23 -24 0
-2 23 -24 0
-2 -23 24 0
2 23 24 0
-14 24 0
21 25 0
19 25 0
16 25 0
-21 -19 -16 -25 0
-2 25 -26 0
2 -25 -26 0
26 -25 -2 0
2 25 26 0
-15 -26 0
21 -27 -28 0
27 -21 -28 0
-21 -27 28 0
27 21 28 0
-12 -28 0
27 -16 -29 0
16 -27 -29 0
29 -27 -16 0
29 27 16 0
-13 29 0
-21 30 0
-16 30 0
21 16 -30 0
27 -30 -31 0
-27 30 -31 0
-27 -30 31 0
27 30 31 0
-14 31 0
21 32 0
16 32 0
-21 -16 -32 0
-27 32 -33 0
27 -32 -33 0
33 -32 -27 0
27 32 33 0
-15 -33 0
-3 34 -35 0
3 -34 -35 0
-3 -34 35 0
3 34 35 0
-12 -35 0
3 -36 -37 0
-3 36 -37 0
37 -3 -36 0
37 3 36 0
-13 37 0
-34 38 0
-36 38 0
-39 38 0
34 36 39 -38 0
3 -38 -40 0
-3 38 -40 0
-3 -38 40 0
3 38 40 0
-14 40 0
34 41 0
36 41 0
39 41 0
-34 -36 -39 -41 0
-3 41 -42 0
3 -41 -42 0
42 -41 -3 0
3 41 42 0
-15 -42 0
-43 36 -44 0
43 -36 -44 0
-43 -36 44 0
43 36 44 0
-12 -44 0
43 -39 -45 0
-43 39 -45 0
45 -43 -39 0
45 43 39 0
-13 45 0
43 -38 -46 0
-43 38 -46 0
-43 -38 46 0
43 38 46 0
-14 46 0
-43 41 -47 0
43 -41 -47 0
47 -41 -43 0
43 41 47 0
-15 -47 0
-48 39 -49 0
48 -39 -49 0
-48 -39 49 0
48 39 49 0
-12 -49 0
48 -34 -50 0
-48 34 -50 0
50 -48 -34 0
50 48 34 0
-13 50 0
48 -38 -51 0
-48 38 -51 0
-48 -38 51 0
48 38 51 0
-14 51 0
-48 41 -52 0
48 -41 -52 0
52 -41 -48 0
48 41 52 0
-15 -52 0
-4 53 -54 0
4 -53 -54 0
-4 -53 54 0
4 53 54 0
-12 -54 0
4 -39 -55 0
-4 39 -55 0
55 -4 -39 0
55 4 39 0
-13 55 0
-34 56 0
-36 56 0
-39 56 0
-53 56 0
34 36 39 53 -56 0
4 -56 -57 0
-4 56 -57 0
-4 -56 57 0
4 56 57 0
-14 57 0
34 58 0
36 58 0
39 58 0
53 58 0
-59 0
-4 58 -60 0
4 -58 -60 0
60 -58 -4 0
4 58 60 0
-15 -60 0
-5 61 -62 0
5 -61 -62 0
-5 -61 62 0
5 61 62 0
-12 -62 0
5 -63 -64 0
-5 63 -64 0
64 -5 -63 0
64 5 63 0
-13 64 0
-61 65 0
-63 65 0
-66 65 0
-67 65 0
61 63 66 67 -65 0
5 -65 -68 0
-5 65 -68 0
-5 -65 68 0
5 65 68 0
-14 68 0
61 69 0
63 69 0
66 69 0
67 69 0
-70 0
-5 69 -71 0
5 -69 -71 0
71 -69 -5 0
5 69 71 0
-15 -71 0
-72 63 -73 0
72 -63 -73 0
-72 -63 73 0
72 63 73 0
-12 -73 0
72 -66 -74 0
-72 66 -74 0
74 -72 -66 0
74 72 66 0
-13 74 0
-63 75 0
-66 75 0
-67 75 0
63 66 67 -75 0
72 -75 -76 0
-72 75 -76 0
-72 -75 76 0
72 75 76 0
-14 76 0
63 77 0
66 77 0
67 77 0
-63 -66 -67 -77 0
-72 77 -78 0
72 -77 -78 0
78 -77 -72 0
72 77 78 0
-15 -78 0
-79 66 -80 0
79 -66 -80 0
-79 -66 80 0
79 66 80 0
-12 -80 0
79 -67 -81 0
-79 67 -81 0
81 -79 -67 0
81 79 67 0
-13 81 0
-66 82 0
-67 82 0
66 67 -82 0
79 -82 -83 0
-79 82 -83 0
-79 -82 83 0
79 82 83 0
-14 83 0
66 84 0
67 84 0
-66 -67 -84 0
-79 84 -85 0
79 -84 -85 0
85 -84 -79 0
79 84 85 0
-15 -85 0
-86 67 -87 0
86 -67 -87 0
-86 -67 87 0
86 67 87 0
-12 -87 0
86 -66 -88 0
-86 66 -88 0
88 -86 -66 0
88 86 66 0
-13 88 0
-67 89 0
-66 89 0
67 66 -89 0
86 -89 -90 0
-86 89 -90 0
-86 -89 90 0
86 89 90 0
-14 90 0
67 91 0
66 91 0
-66 -67 -91 0
-86 91 -92 0
86 -91 -92 0
92 -91 -86 0
86 91 92 0
-15 -92 0
-6 93 -94 0
6 -93 -94 0
-6 -93 94 0
6 93 94 0
-12 -94 0
6 -95 -96 0
-6 95 -96 0
96 -6 -95 0
96 6 95 0
-13 96 0
-93 97 0
-95 97 0
-98 97 0
-99 97 0
-100 97 0
-101 97 0
-102 97 0
-103 97 0
104 0
6 -97 -105 0
-6 97 -105 0
-6 -97 105 0
6 97 105 0
-14 105 0
93 106 0
95 106 0
98 106 0
99 106 0
100 106 0
101 106 0
102 106 0
103 106 0
-107 0
-6 106 -108 0
6 -106 -108 0
108 -106 -6 0
6 106 108 0
-15 -108 0
-109 95 -110 0
109 -95 -110 0
-109 -95 110 0
109 95 110 0
-12 -110 0
109 -98 -111 0
-109 98 -111 0
111 -109 -98 0
111 109 98 0
-13 111 0
-95 112 0
-98 112 0
-99 112 0
-100 112 0
-101 112 0
-102 112 0
-103 112 0
113 0
109 -112 -114 0
-109 112 -114 0
-109 -112 114 0
109 112 114 0
-14 114 0
95 115 0
98 115 0
99 115 0
100 115 0
101 115 0
102 115 0
103 115 0
-116 0
-109 115 -117 0
109 -115 -117 0
117 -115 -109 0
109 115 117 0
-15 -117 0
-118 98 -119 0
118 -98 -119 0
-118 -98 119 0
118 98 119 0
-12 -119 0
118 -99 -120 0
-118 99 -120 0
120 -118 -99 0
120 118 99 0
-13 120 0
-98 121 0
-99 121 0
-100 121 0
-101 121 0
-102 121 0
-103 121 0
122 0
118 -121 -123 0
-118 121 -123 0
-118 -121 123 0
118 121 123 0
-14 123 0
98 124 0
99 124 0
100 124 0
101 124 0
102 124 0
103 124 0
-125 0
-118 124 -126 0
118 -124 -126 0
126 -124 -118 0
118 124 126 0
-15 -126 0
-127 99 -128 0
127 -99 -128 0
-127 -99 128 0
127 99 128 0
-12 -128 0
127 -100 -129 0
-127 100 -129 0
129 -127 -100 0
129 127 100 0
-13 129 0
-99 130 0
-100 130 0
-101 130 0
-102 130 0
-103 130 0
99 100 101 102 103 -130 0
127 -130 -131 0
-127 130 -131 0
-127 -130 131 0
127 130 131 0
-14 131 0
99 132 0
100 132 0
101 132 0
102 132 0
103 132 0
-133 0
-127 132 -134 0
127 -132 -134 0
134 -132 -127 0
127 132 134 0
-15 -134 0
-135 100 -136 0
135 -100 -136 0
-135 -100 136 0
135 100 136 0
-12 -136 0
135 -101 -137 0
-135 101 -137 0
137 -135 -101 0
137 135 101 0
-13 137 0
-100 138 0
-101 138 0
-102 138 0
-103 138 0
100 101 102 103 -138 0
135 -138 -139 0
-135 138 -139 0
-135 -138 139 0
135 138 139 0
-14 139 0
100 140 0
101 140 0
102 140 0
103 140 0
-141 0
-135 140 -142 0
135 -140 -142 0
142 -140 -135 0
135 140 142 0
-15 -142 0
-143 101 -144 0
143 -101 -144 0
-143 -101 144 0
143 101 144 0
-12 -144 0
143 -102 -145 0
-143 102 -145 0
145 -143 -102 0
145 143 102 0
-13 145 0
143 -138 -146 0
-143 138 -146 0
-143 -138 146 0
143 138 146 0
-14 146 0
-143 140 -147 0
143 -140 -147 0
147 -140 -143 0
143 140 147 0
-15 -147 0
-148 102 -149 0
148 -102 -149 0
-148 -102 149 0
148 102 149 0
-12 -149 0
148 -103 -150 0
-148 103 -150 0
150 -148 -103 0
150 148 103 0
-13 150 0
148 -138 -151 0
-148 138 -151 0
-148 -138 151 0
148 138 151 0
-14 151 0
-148 140 -152 0
148 -140 -152 0
152 -140 -148 0
148 140 152 0
-15 -152 0
-153 103 -154 0
153 -103 -154 0
-153 -103 154 0
153 103 154 0
-12 -154 0
153 -100 -155 0
-153 100 -155 0
155 -153 -100 0
155 153 100 0
-13 155 0
153 -138 -156 0
-153 138 -156 0
-153 -138 156 0
153 138 156 0
-14 156 0
-153 140 -157 0
153 -140 -157 0
157 -140 -153 0
153 140 157 0
-15 -157 0
-7 158 -159 0
7 -158 -159 0
-7 -158 159 0
7 158 159 0
-12 -159 0
7 -160 -161 0
-7 160 -161 0
161 -7 -160 0
161 7 160 0
-13 161 0
-100 162 0
-101 162 0
-102 162 0
-103 162 0
-158 162 0
-160 162 0
163 0
7 -162 -164 0
-7 162 -164 0
-7 -162 164 0
7 162 164 0
-14 164 0
100 165 0
101 165 0
102 165 0
103 165 0
158 165 0
160 165 0
-166 0
-7 165 -167 0
7 -165 -167 0
167 -165 -7 0
7 165 167 0
-15 -167 0
-168 160 -169 0
168 -160 -169 0
-168 -160 169 0
168 160 169 0
-12 -169 0
168 -101 -170 0
-168 101 -170 0
170 -168 -101 0
170 168 101 0
-13 170 0
-100 171 0
-101 171 0
-102 171 0
-103 171 0
-160 171 0
100 101 102 103 160 -171 0
168 -171 -172 0
-168 171 -172 0
-168 -171 172 0
168 171 172 0
-14 172 0
100 173 0
101 173 0
102 173 0
103 173 0
160 173 0
-174 0
-168 173 -175 0
168 -173 -175 0
175 -173 -168 0
168 173 175 0
-15 -175 0
-8 176 -177 0
8 -176 -177 0
-8 -176 177 0
8 176 177 0
-12 -177 0
8 -178 -179 0
-8 178 -179 0
179 -8 -178 0
179 8 178 0
-13 179 0
-176 180 0
-178 180 0
-181 180 0
-182 180 0
-183 180 0
-184 180 0
-185 180 0
186 0
8 -180 -187 0
-8 180 -187 0
-8 -180 187 0
8 180 187 0
-14 187 0
176 188 0
178 188 0
181 188 0
182 188 0
183 188 0
184 188 0
185 188 0
-189 0
-8 188 -190 0
8 -188 -190 0
190 -188 -8 0
8 188 190 0
-15 -190 0
-191 178 -192 0
191 -178 -192 0
-191 -178 192 0
191 178 192 0
-12 -192 0
191 -181 -193 0
-191 181 -193 0
193 -191 -181 0
193 191 181 0
-13 193 0
-178 194 0
-181 194 0
-182 194 0
-183 194 0
-184 194 0
-185 194 0
195 0
191 -194 -196 0
-191 194 -196 0
-191 -194 196 0
191 194 196 0
-14 196 0
178 197 0
181 197 0
182 197 0
183 197 0
184 197 0
185 197 0
-198 0
-191 197 -199 0
191 -197 -199 0
199 -197 -191 0
191 197 199 0
-15 -199 0
-200 181 -201 0
200 -181 -201 0
-200 -181 201 0
200 181 201 0
-12 -201 0
200 -182 -202 0
-200 182 -202 0
202 -200 -182 0
202 200 182 0
-13 202 0
-181 203 0
-182 203 0
-183 203 0
-184 203 0
-185 203 0
181 182 183 184 185 -203 0
200 -203 -204 0
-200 203 -204 0
-200 -203 204 0
200 203 204 0
-14 204 0
181 205 0
182 205 0
183 205 0
184 205 0
185 205 0
-206 0
-200 205 -207 0
200 -205 -207 0
207 -205 -200 0
200 205 207 0
-15 -207 0
-208 182 -209 0
208 -182 -209 0
-208 -182 209 0
208 182 209 0
-12 -209 0
208 -183 -210 0
-208 183 -210 0
210 -208 -183 0
210 208 183 0
-13 210 0
-182 211 0
-183 211 0
-184 211 0
-185 211 0
182 183 184 185 -211 0
208 -211 -212 0
-208 211 -212 0
-208 -211 212 0
208 211 212 0
-14 212 0
182 213 0
183 213 0
184 213 0
185 213 0
-214 0
-208 213 -215 0
208 -213 -215 0
215 -213 -208 0
208 213 215 0
-15 -215 0
-216 183 -217 0
216 -183 -217 0
-216 -183 217 0
216 183 217 0
-12 -217 0
216 -184 -218 0
-216 184 -218 0
218 -216 -184 0
218 216 184 0
-13 218 0
216 -211 -219 0
-216 211 -219 0
-216 -211 219 0
216 211 219 0
-14 219 0
-216 213 -220 0
216 -213 -220 0
220 -213 -216 0
216 213 220 0
-15 -220 0
-221 184 -222 0
221 -184 -222 0
-221 -184 222 0
221 184 222 0
-12 -222 0
221 -185 -223 0
-221 185 -223 0
223 -221 -185 0
223 221 185 0
-13 223 0
221 -211 -224 0
-221 211 -224 0
-221 -211 224 0
221 211 224 0
-14 224 0
-221 213 -225 0
221 -213 -225 0
225 -213 -221 0
221 213 225 0
-15 -225 0
-226 185 -227 0
226 -185 -227 0
-226 -185 227 0
226 185 227 0
-12 -227 0
226 -182 -228 0
-226 182 -228 0
228 -226 -182 0
228 226 182 0
-13 228 0
226 -211 -229 0
-226 211 -229 0
-226 -211 229 0
226 211 229 0
-14 229 0
-226 213 -230 0
226 -213 -230 0
230 -213 -226 0
226 213 230 0
-15 -230 0
-9 231 -232 0
9 -231 -232 0
-9 -231 232 0
9 231 232 0
-12 -232 0
9 -233 -234 0
-9 233 -234 0
234 -9 -233 0
234 9 233 0
-13 234 0
-231 235 0
-233 235 0
231 233 -235 0
9 -235 -236 0
-9 235 -236 0
-9 -235 236 0
9 235 236 0
-14 236 0
231 237 0
233 237 0
-231 -233 -237 0
-9 237 -238 0
9 -237 -238 0
238 -237 -9 0
9 237 238 0
-15 -238 0
-239 233 -240 0
239 -233 -240 0
-239 -233 240 0
239 233 240 0
-12 -240 0
239 -233 -241 0
-239 233 -241 0
241 -239 -233 0
241 239 233 0
-13 241 0
-14 241 0
-15 241 0
-10 242 -243 0
10 -242 -243 0
-10 -242 243 0
10 242 243 0
-12 -243 0
10 -158 -244 0
-10 158 -244 0
244 -10 -158 0
244 10 158 0
-13 244 0
-100 245 0
-101 245 0
-102 245 0
-103 245 0
-158 245 0
-160 245 0
-242 245 0
246 0
10 -245 -247 0
-10 245 -247 0
-10 -245 247 0
10 245 247 0
-14 247 0
100 248 0
101 248 0
102 248 0
103 248 0
158 248 0
160 248 0
242 248 0
-249 0
-10 248 -250 0
10 -248 -250 0
250 -248 -10 0
10 248 250 0
-15 -250 0
-11 251 -252 0
11 -251 -252 0
-11 -251 252 0
11 251 252 0
-12 -252 0
11 -253 -254 0
-11 253 -254 0
254 -11 -253 0
254 11 253 0
-13 254 0
-231 255 0
-233 255 0
-251 255 0
-253 255 0
231 233 251 253 -255 0
11 -255 -256 0
-11 255 -256 0
-11 -255 256 0
11 255 256 0
-14 256 0
231 257 0
233 257 0
251 257 0
253 257 0
-258 0
-11 257 -259 0
11 -257 -259 0
259 -257 -11 0
11 257 259 0
-15 -259 0
-260 253 -261 0
260 -253 -261 0
-260 -253 261 0
260 253 261 0
-12 -261 0
260 -231 -262 0
-260 231 -262 0
262 -260 -231 0
262 260 231 0
-13 262 0
-231 263 0
-233 263 0
-253 263 0
231 233 253 -263 0
260 -263 -264 0
-260 263 -264 0
-260 -263 264 0
260 263 264 0
-14 264 0
231 265 0
233 265 0
253 265 0
-231 -233 -253 -265 0
-260 265 -266 0
260 -265 -266 0
266 -265 -260 0
260 265 266 0
-15 -266 0
16 -267 0
19 -267 0
-267 -21 0
34 -267 0
36 -267 0
-267 -39 0
-267 -53 0
-267 -61 0
-267 -63 0
-267 -66 0
67 -267 0
-267 -93 0
-267 -95 0
-267 -98 0
-267 -99 0
-267 -100 0
-267 -101 0
-267 -102 0
103 -267 0
-267 -158 0
160 -267 0
-267 -176 0
178 -267 0
-267 -181 0
-267 -182 0
-267 -183 0
184 -267 0
185 -267 0
231 -267 0
-267 -233 0
242 -267 0
251 -267 0
-267 -253 0
267 0
-268 0
-269 0
-270 0
-271 0
-272 0
-273 0
-274 0
-275 0
